data;

set A := 228 780 395 86 744 327 302 709 240 289 702 496 252 606 353 750 281 95 303 318 419 772 148 661 514 741 786 374 714 561 801 117 208 601 230 226 804 476 305 501 287 638 13 855 946 838 763 740;
param T := 12000;

end;
